n = 158;
rows = 468;
supports = [|
  {1},{1},
 |{1},4..156,
 |{2},{2},
 |{2},5..157,
 |{3},{3},
 |{3},6..158,
 |{4},{4},
 |{4},{1},
 |{4},7..158,
 |{5},{5},
 |{5},1..2,
 |{5},8..158,
 |{6},{6},
 |{6},1..3,
 |{6},9..158,
 |{7},{7},
 |{7},1..4,
 |{7},10..158,
 |{8},{8},
 |{8},1..5,
 |{8},11..158,
 |{9},{9},
 |{9},1..6,
 |{9},12..158,
 |{10},{10},
 |{10},1..7,
 |{10},13..158,
 |{11},{11},
 |{11},1..8,
 |{11},14..158,
 |{12},{12},
 |{12},1..9,
 |{12},15..158,
 |{13},{13},
 |{13},1..10,
 |{13},16..158,
 |{14},{14},
 |{14},1..11,
 |{14},17..158,
 |{15},{15},
 |{15},1..12,
 |{15},18..158,
 |{16},{16},
 |{16},1..13,
 |{16},19..158,
 |{17},{17},
 |{17},1..14,
 |{17},20..158,
 |{18},{18},
 |{18},1..15,
 |{18},21..158,
 |{19},{19},
 |{19},1..16,
 |{19},22..158,
 |{20},{20},
 |{20},1..17,
 |{20},23..158,
 |{21},{21},
 |{21},1..18,
 |{21},24..158,
 |{22},{22},
 |{22},1..19,
 |{22},25..158,
 |{23},{23},
 |{23},1..20,
 |{23},26..158,
 |{24},{24},
 |{24},1..21,
 |{24},27..158,
 |{25},{25},
 |{25},1..22,
 |{25},28..158,
 |{26},{26},
 |{26},1..23,
 |{26},29..158,
 |{27},{27},
 |{27},1..24,
 |{27},30..158,
 |{28},{28},
 |{28},1..25,
 |{28},31..158,
 |{29},{29},
 |{29},1..26,
 |{29},32..158,
 |{30},{30},
 |{30},1..27,
 |{30},33..158,
 |{31},{31},
 |{31},1..28,
 |{31},34..158,
 |{32},{32},
 |{32},1..29,
 |{32},35..158,
 |{33},{33},
 |{33},1..30,
 |{33},36..158,
 |{34},{34},
 |{34},1..31,
 |{34},37..158,
 |{35},{35},
 |{35},1..32,
 |{35},38..158,
 |{36},{36},
 |{36},1..33,
 |{36},39..158,
 |{37},{37},
 |{37},1..34,
 |{37},40..158,
 |{38},{38},
 |{38},1..35,
 |{38},41..158,
 |{39},{39},
 |{39},1..36,
 |{39},42..158,
 |{40},{40},
 |{40},1..37,
 |{40},43..158,
 |{41},{41},
 |{41},1..38,
 |{41},44..158,
 |{42},{42},
 |{42},1..39,
 |{42},45..158,
 |{43},{43},
 |{43},1..40,
 |{43},46..158,
 |{44},{44},
 |{44},1..41,
 |{44},47..158,
 |{45},{45},
 |{45},1..42,
 |{45},48..158,
 |{46},{46},
 |{46},1..43,
 |{46},49..158,
 |{47},{47},
 |{47},1..44,
 |{47},50..158,
 |{48},{48},
 |{48},1..45,
 |{48},51..158,
 |{49},{49},
 |{49},1..46,
 |{49},52..158,
 |{50},{50},
 |{50},1..47,
 |{50},53..158,
 |{51},{51},
 |{51},1..48,
 |{51},54..158,
 |{52},{52},
 |{52},1..49,
 |{52},55..158,
 |{53},{53},
 |{53},1..50,
 |{53},56..158,
 |{54},{54},
 |{54},1..51,
 |{54},57..158,
 |{55},{55},
 |{55},1..52,
 |{55},58..158,
 |{56},{56},
 |{56},1..53,
 |{56},59..158,
 |{57},{57},
 |{57},1..54,
 |{57},60..158,
 |{58},{58},
 |{58},1..55,
 |{58},61..158,
 |{59},{59},
 |{59},1..56,
 |{59},62..158,
 |{60},{60},
 |{60},1..57,
 |{60},63..158,
 |{61},{61},
 |{61},1..58,
 |{61},64..158,
 |{62},{62},
 |{62},1..59,
 |{62},65..158,
 |{63},{63},
 |{63},1..60,
 |{63},66..158,
 |{64},{64},
 |{64},1..61,
 |{64},67..158,
 |{65},{65},
 |{65},1..62,
 |{65},68..158,
 |{66},{66},
 |{66},1..63,
 |{66},69..158,
 |{67},{67},
 |{67},1..64,
 |{67},70..158,
 |{68},{68},
 |{68},1..65,
 |{68},71..158,
 |{69},{69},
 |{69},1..66,
 |{69},72..158,
 |{70},{70},
 |{70},1..67,
 |{70},73..158,
 |{71},{71},
 |{71},1..68,
 |{71},74..158,
 |{72},{72},
 |{72},1..69,
 |{72},75..158,
 |{73},{73},
 |{73},1..70,
 |{73},76..158,
 |{74},{74},
 |{74},1..71,
 |{74},77..158,
 |{75},{75},
 |{75},1..72,
 |{75},78..158,
 |{76},{76},
 |{76},1..73,
 |{76},79..158,
 |{77},{77},
 |{77},1..74,
 |{77},80..158,
 |{78},{78},
 |{78},1..75,
 |{78},81..158,
 |{79},{79},
 |{79},1..76,
 |{79},82..158,
 |{80},{80},
 |{80},1..77,
 |{80},83..158,
 |{81},{81},
 |{81},1..78,
 |{81},84..158,
 |{82},{82},
 |{82},1..79,
 |{82},85..158,
 |{83},{83},
 |{83},1..80,
 |{83},86..158,
 |{84},{84},
 |{84},1..81,
 |{84},87..158,
 |{85},{85},
 |{85},1..82,
 |{85},88..158,
 |{86},{86},
 |{86},1..83,
 |{86},89..158,
 |{87},{87},
 |{87},1..84,
 |{87},90..158,
 |{88},{88},
 |{88},1..85,
 |{88},91..158,
 |{89},{89},
 |{89},1..86,
 |{89},92..158,
 |{90},{90},
 |{90},1..87,
 |{90},93..158,
 |{91},{91},
 |{91},1..88,
 |{91},94..158,
 |{92},{92},
 |{92},1..89,
 |{92},95..158,
 |{93},{93},
 |{93},1..90,
 |{93},96..158,
 |{94},{94},
 |{94},1..91,
 |{94},97..158,
 |{95},{95},
 |{95},1..92,
 |{95},98..158,
 |{96},{96},
 |{96},1..93,
 |{96},99..158,
 |{97},{97},
 |{97},1..94,
 |{97},100..158,
 |{98},{98},
 |{98},1..95,
 |{98},101..158,
 |{99},{99},
 |{99},1..96,
 |{99},102..158,
 |{100},{100},
 |{100},1..97,
 |{100},103..158,
 |{101},{101},
 |{101},1..98,
 |{101},104..158,
 |{102},{102},
 |{102},1..99,
 |{102},105..158,
 |{103},{103},
 |{103},1..100,
 |{103},106..158,
 |{104},{104},
 |{104},1..101,
 |{104},107..158,
 |{105},{105},
 |{105},1..102,
 |{105},108..158,
 |{106},{106},
 |{106},1..103,
 |{106},109..158,
 |{107},{107},
 |{107},1..104,
 |{107},110..158,
 |{108},{108},
 |{108},1..105,
 |{108},111..158,
 |{109},{109},
 |{109},1..106,
 |{109},112..158,
 |{110},{110},
 |{110},1..107,
 |{110},113..158,
 |{111},{111},
 |{111},1..108,
 |{111},114..158,
 |{112},{112},
 |{112},1..109,
 |{112},115..158,
 |{113},{113},
 |{113},1..110,
 |{113},116..158,
 |{114},{114},
 |{114},1..111,
 |{114},117..158,
 |{115},{115},
 |{115},1..112,
 |{115},118..158,
 |{116},{116},
 |{116},1..113,
 |{116},119..158,
 |{117},{117},
 |{117},1..114,
 |{117},120..158,
 |{118},{118},
 |{118},1..115,
 |{118},121..158,
 |{119},{119},
 |{119},1..116,
 |{119},122..158,
 |{120},{120},
 |{120},1..117,
 |{120},123..158,
 |{121},{121},
 |{121},1..118,
 |{121},124..158,
 |{122},{122},
 |{122},1..119,
 |{122},125..158,
 |{123},{123},
 |{123},1..120,
 |{123},126..158,
 |{124},{124},
 |{124},1..121,
 |{124},127..158,
 |{125},{125},
 |{125},1..122,
 |{125},128..158,
 |{126},{126},
 |{126},1..123,
 |{126},129..158,
 |{127},{127},
 |{127},1..124,
 |{127},130..158,
 |{128},{128},
 |{128},1..125,
 |{128},131..158,
 |{129},{129},
 |{129},1..126,
 |{129},132..158,
 |{130},{130},
 |{130},1..127,
 |{130},133..158,
 |{131},{131},
 |{131},1..128,
 |{131},134..158,
 |{132},{132},
 |{132},1..129,
 |{132},135..158,
 |{133},{133},
 |{133},1..130,
 |{133},136..158,
 |{134},{134},
 |{134},1..131,
 |{134},137..158,
 |{135},{135},
 |{135},1..132,
 |{135},138..158,
 |{136},{136},
 |{136},1..133,
 |{136},139..158,
 |{137},{137},
 |{137},1..134,
 |{137},140..158,
 |{138},{138},
 |{138},1..135,
 |{138},141..158,
 |{139},{139},
 |{139},1..136,
 |{139},142..158,
 |{140},{140},
 |{140},1..137,
 |{140},143..158,
 |{141},{141},
 |{141},1..138,
 |{141},144..158,
 |{142},{142},
 |{142},1..139,
 |{142},145..158,
 |{143},{143},
 |{143},1..140,
 |{143},146..158,
 |{144},{144},
 |{144},1..141,
 |{144},147..158,
 |{145},{145},
 |{145},1..142,
 |{145},148..158,
 |{146},{146},
 |{146},1..143,
 |{146},149..158,
 |{147},{147},
 |{147},1..144,
 |{147},150..158,
 |{148},{148},
 |{148},1..145,
 |{148},151..158,
 |{149},{149},
 |{149},1..146,
 |{149},152..158,
 |{150},{150},
 |{150},1..147,
 |{150},153..158,
 |{151},{151},
 |{151},1..148,
 |{151},154..158,
 |{152},{152},
 |{152},1..149,
 |{152},155..158,
 |{153},{153},
 |{153},1..150,
 |{153},156..158,
 |{154},{154},
 |{154},1..151,
 |{154},157..158,
 |{155},{155},
 |{155},1..152,
 |{155},{158},
 |{156},{156},
 |{156},1..153,
 |{157},{157},
 |{157},2..154,
 |{158},{158},
 |{158},3..155 |];

t = 312;

indexes = [|
    0,61,
  | 0,69,
  | 0,85,
  | 0,96,
  | 1,11,
  | 1,19,
  | 1,49,
  | 1,150,
  | 2,3,
  | 2,32,
  | 2,112,
  | 2,140,
  | 3,28,
  | 3,42,
  | 3,127,
  | 4,29,
  | 4,35,
  | 4,73,
  | 4,76,
  | 5,24,
  | 5,31,
  | 5,131,
  | 5,137,
  | 6,52,
  | 6,58,
  | 6,78,
  | 6,152,
  | 7,103,
  | 7,115,
  | 7,147,
  | 7,154,
  | 8,43,
  | 8,53,
  | 8,108,
  | 8,142,
  | 9,56,
  | 9,84,
  | 9,135,
  | 9,148,
  | 10,11,
  | 10,19,
  | 10,49,
  | 10,150,
  | 11,68,
  | 11,77,
  | 12,19,
  | 12,40,
  | 12,49,
  | 12,121,
  | 13,30,
  | 13,59,
  | 13,99,
  | 13,130,
  | 14,88,
  | 14,100,
  | 14,114,
  | 14,129,
  | 15,27,
  | 15,81,
  | 15,107,
  | 15,157,
  | 16,30,
  | 16,59,
  | 16,116,
  | 16,117,
  | 17,81,
  | 17,95,
  | 17,105,
  | 17,157,
  | 18,22,
  | 18,61,
  | 18,96,
  | 18,119,
  | 19,33,
  | 20,43,
  | 20,53,
  | 20,108,
  | 20,142,
  | 21,41,
  | 21,89,
  | 22,54,
  | 22,64,
  | 22,120,
  | 23,44,
  | 23,75,
  | 23,91,
  | 23,104,
  | 24,66,
  | 24,68,
  | 24,77,
  | 25,26,
  | 25,60,
  | 25,116,
  | 25,117,
  | 26,65,
  | 26,118,
  | 26,155,
  | 27,41,
  | 27,89,
  | 27,110,
  | 28,36,
  | 28,112,
  | 28,134,
  | 29,48,
  | 29,57,
  | 29,93,
  | 30,113,
  | 30,145,
  | 31,35,
  | 31,66,
  | 31,76,
  | 32,42,
  | 32,46,
  | 32,63,
  | 33,40,
  | 33,49,
  | 33,121,
  | 34,70,
  | 34,82,
  | 34,124,
  | 34,138,
  | 35,48,
  | 35,131,
  | 36,47,
  | 36,90,
  | 36,127,
  | 37,118,
  | 37,155,
  | 38,52,
  | 38,102,
  | 38,146,
  | 38,152,
  | 39,70,
  | 39,82,
  | 39,103,
  | 39,115,
  | 40,44,
  | 40,75,
  | 41,67,
  | 41,107,
  | 42,112,
  | 42,140,
  | 43,102,
  | 43,146,
  | 44,121,
  | 44,122,
  | 45,58,
  | 45,78,
  | 45,98,
  | 45,106,
  | 46,91,
  | 46,104,
  | 46,140,
  | 47,53,
  | 47,108,
  | 47,134,
  | 48,73,
  | 48,76,
  | 50,111,
  | 50,133,
  | 50,143,
  | 50,151,
  | 51,52,
  | 51,58,
  | 51,78,
  | 51,152,
  | 52,101,
  | 53,90,
  | 54,61,
  | 54,96,
  | 54,119,
  | 55,61,
  | 55,69,
  | 55,85,
  | 55,96,
  | 56,71,
  | 56,80,
  | 56,123,
  | 57,73,
  | 57,147,
  | 57,154,
  | 58,144,
  | 59,113,
  | 59,145,
  | 60,65,
  | 60,118,
  | 60,155,
  | 62,69,
  | 62,85,
  | 62,99,
  | 62,130,
  | 63,91,
  | 63,104,
  | 63,140,
  | 64,100,
  | 64,114,
  | 64,119,
  | 65,116,
  | 65,117,
  | 66,131,
  | 66,137,
  | 67,89,
  | 68,137,
  | 68,150,
  | 69,132,
  | 70,94,
  | 70,156,
  | 71,84,
  | 71,95,
  | 71,105,
  | 72,74,
  | 72,125,
  | 72,141,
  | 72,153,
  | 73,93,
  | 74,83,
  | 74,109,
  | 74,126,
  | 75,121,
  | 75,122,
  | 76,131,
  | 77,137,
  | 77,150,
  | 78,144,
  | 79,83,
  | 79,126,
  | 79,135,
  | 79,148,
  | 80,84,
  | 80,95,
  | 80,105,
  | 81,97,
  | 81,110,
  | 82,94,
  | 82,156,
  | 83,139,
  | 83,153,
  | 84,123,
  | 85,132,
  | 86,111,
  | 86,124,
  | 86,133,
  | 86,138,
  | 87,103,
  | 87,115,
  | 87,147,
  | 87,154,
  | 88,98,
  | 88,106,
  | 88,149,
  | 89,107,
  | 90,108,
  | 90,134,
  | 91,122,
  | 92,118,
  | 92,155,
  | 93,147,
  | 93,154,
  | 94,124,
  | 94,138,
  | 95,97,
  | 97,105,
  | 97,157,
  | 98,129,
  | 98,144,
  | 99,132,
  | 99,145,
  | 100,120,
  | 100,149,
  | 101,102,
  | 101,146,
  | 101,152,
  | 102,142,
  | 103,156,
  | 104,122,
  | 106,129,
  | 106,144,
  | 107,110,
  | 109,125,
  | 109,141,
  | 109,153,
  | 110,157,
  | 111,128,
  | 111,136,
  | 112,127,
  | 113,116,
  | 113,117,
  | 114,120,
  | 114,149,
  | 115,156,
  | 119,120,
  | 123,135,
  | 123,148,
  | 124,128,
  | 125,143,
  | 125,151,
  | 126,139,
  | 126,153,
  | 127,134,
  | 128,133,
  | 128,138,
  | 129,149,
  | 130,132,
  | 130,145,
  | 133,136,
  | 135,139,
  | 136,143,
  | 136,151,
  | 139,148,
  | 141,143,
  | 141,151,
  | 142,146 |];

